(set-logic QF_LRA)
(declare-fun T1 () Real )
(declare-fun T2 () Real )
(declare-fun T3 () Real )
(declare-fun T4 () Real )
(declare-fun T5 () Real )
(declare-fun T6 () Real )
(declare-fun Z () Real )
(assert ( and 
(or ( <= ( + T1 19 ) T2 ) ( <= ( + T2 30 ) T1 ) )
(or ( <= ( + T1 34 )  ( + T2 30 ) ) ( <= ( + T2 32 )( + T1 19 ) ) )
(or ( <= ( + T1 49 )  ( + T2 32 ) ) ( <= ( + T2 77 )( + T1 34 ) ) )
(or ( <= ( + T1 142 )  ( + T2 77 ) ) ( <= ( + T2 114 )( + T1 49 ) ) )
(or ( <= ( + T1 19 ) T3 ) ( <= ( + T3 75 ) T1 ) )
(or ( <= ( + T1 34 )  ( + T3 75 ) ) ( <= ( + T3 136 )( + T1 19 ) ) )
(or ( <= ( + T1 49 )  ( + T3 136 ) ) ( <= ( + T3 139 )( + T1 34 ) ) )
(or ( <= ( + T1 142 )  ( + T3 139 ) ) ( <= ( + T3 178 )( + T1 49 ) ) )
(or ( <= ( + T1 19 ) T4 ) ( <= ( + T4 23 ) T1 ) )
(or ( <= ( + T1 34 )  ( + T4 23 ) ) ( <= ( + T4 118 )( + T1 19 ) ) )
(or ( <= ( + T1 49 )  ( + T4 118 ) ) ( <= ( + T4 126 )( + T1 34 ) ) )
(or ( <= ( + T1 142 )  ( + T4 126 ) ) ( <= ( + T4 157 )( + T1 49 ) ) )
(or ( <= ( + T1 19 ) T5 ) ( <= ( + T5 100 ) T1 ) )
(or ( <= ( + T1 34 )  ( + T5 100 ) ) ( <= ( + T5 155 )( + T1 19 ) ) )
(or ( <= ( + T1 49 )  ( + T5 155 ) ) ( <= ( + T5 224 )( + T1 34 ) ) )
(or ( <= ( + T1 142 )  ( + T5 224 ) ) ( <= ( + T5 239 )( + T1 49 ) ) )
(or ( <= ( + T1 19 ) T6 ) ( <= ( + T6 1 ) T1 ) )
(or ( <= ( + T1 34 )  ( + T6 1 ) ) ( <= ( + T6 94 )( + T1 19 ) ) )
(or ( <= ( + T1 49 )  ( + T6 94 ) ) ( <= ( + T6 95 )( + T1 34 ) ) )
(or ( <= ( + T1 142 )  ( + T6 95 ) ) ( <= ( + T6 123 )( + T1 49 ) ) )
(or ( <= ( + T2 30 ) T3 ) ( <= ( + T3 75 ) T2 ) )
(or ( <= ( + T2 32 )  ( + T3 75 ) ) ( <= ( + T3 136 )( + T2 30 ) ) )
(or ( <= ( + T2 77 )  ( + T3 136 ) ) ( <= ( + T3 139 )( + T2 32 ) ) )
(or ( <= ( + T2 114 )  ( + T3 139 ) ) ( <= ( + T3 178 )( + T2 77 ) ) )
(or ( <= ( + T2 30 ) T4 ) ( <= ( + T4 23 ) T2 ) )
(or ( <= ( + T2 32 )  ( + T4 23 ) ) ( <= ( + T4 118 )( + T2 30 ) ) )
(or ( <= ( + T2 77 )  ( + T4 118 ) ) ( <= ( + T4 126 )( + T2 32 ) ) )
(or ( <= ( + T2 114 )  ( + T4 126 ) ) ( <= ( + T4 157 )( + T2 77 ) ) )
(or ( <= ( + T2 30 ) T5 ) ( <= ( + T5 100 ) T2 ) )
(or ( <= ( + T2 32 )  ( + T5 100 ) ) ( <= ( + T5 155 )( + T2 30 ) ) )
(or ( <= ( + T2 77 )  ( + T5 155 ) ) ( <= ( + T5 224 )( + T2 32 ) ) )
(or ( <= ( + T2 114 )  ( + T5 224 ) ) ( <= ( + T5 239 )( + T2 77 ) ) )
(or ( <= ( + T2 30 ) T6 ) ( <= ( + T6 1 ) T2 ) )
(or ( <= ( + T2 32 )  ( + T6 1 ) ) ( <= ( + T6 94 )( + T2 30 ) ) )
(or ( <= ( + T2 77 )  ( + T6 94 ) ) ( <= ( + T6 95 )( + T2 32 ) ) )
(or ( <= ( + T2 114 )  ( + T6 95 ) ) ( <= ( + T6 123 )( + T2 77 ) ) )
(or ( <= ( + T3 75 ) T4 ) ( <= ( + T4 23 ) T3 ) )
(or ( <= ( + T3 136 )  ( + T4 23 ) ) ( <= ( + T4 118 )( + T3 75 ) ) )
(or ( <= ( + T3 139 )  ( + T4 118 ) ) ( <= ( + T4 126 )( + T3 136 ) ) )
(or ( <= ( + T3 178 )  ( + T4 126 ) ) ( <= ( + T4 157 )( + T3 139 ) ) )
(or ( <= ( + T3 75 ) T5 ) ( <= ( + T5 100 ) T3 ) )
(or ( <= ( + T3 136 )  ( + T5 100 ) ) ( <= ( + T5 155 )( + T3 75 ) ) )
(or ( <= ( + T3 139 )  ( + T5 155 ) ) ( <= ( + T5 224 )( + T3 136 ) ) )
(or ( <= ( + T3 178 )  ( + T5 224 ) ) ( <= ( + T5 239 )( + T3 139 ) ) )
(or ( <= ( + T3 75 ) T6 ) ( <= ( + T6 1 ) T3 ) )
(or ( <= ( + T3 136 )  ( + T6 1 ) ) ( <= ( + T6 94 )( + T3 75 ) ) )
(or ( <= ( + T3 139 )  ( + T6 94 ) ) ( <= ( + T6 95 )( + T3 136 ) ) )
(or ( <= ( + T3 178 )  ( + T6 95 ) ) ( <= ( + T6 123 )( + T3 139 ) ) )
(or ( <= ( + T4 23 ) T5 ) ( <= ( + T5 100 ) T4 ) )
(or ( <= ( + T4 118 )  ( + T5 100 ) ) ( <= ( + T5 155 )( + T4 23 ) ) )
(or ( <= ( + T4 126 )  ( + T5 155 ) ) ( <= ( + T5 224 )( + T4 118 ) ) )
(or ( <= ( + T4 157 )  ( + T5 224 ) ) ( <= ( + T5 239 )( + T4 126 ) ) )
(or ( <= ( + T4 23 ) T6 ) ( <= ( + T6 1 ) T4 ) )
(or ( <= ( + T4 118 )  ( + T6 1 ) ) ( <= ( + T6 94 )( + T4 23 ) ) )
(or ( <= ( + T4 126 )  ( + T6 94 ) ) ( <= ( + T6 95 )( + T4 118 ) ) )
(or ( <= ( + T4 157 )  ( + T6 95 ) ) ( <= ( + T6 123 )( + T4 126 ) ) )
(or ( <= ( + T5 100 ) T6 ) ( <= ( + T6 1 ) T5 ) )
(or ( <= ( + T5 155 )  ( + T6 1 ) ) ( <= ( + T6 94 )( + T5 100 ) ) )
(or ( <= ( + T5 224 )  ( + T6 94 ) ) ( <= ( + T6 95 )( + T5 155 ) ) )
(or ( <= ( + T5 239 )  ( + T6 95 ) ) ( <= ( + T6 123 )( + T5 224 ) ) )
( <= ( + T1 142 ) Z)
( <= ( + T2 114 ) Z)
( <= ( + T3 178 ) Z)
( <= ( + T4 157 ) Z)
( <= ( + T5 239 ) Z)
( <= ( + T6 123 ) Z)
( >= T1 0 )
( >= T2 0 )
( >= T3 0 )
( >= T4 0 )
( >= T5 0 )
( >= T6 0 )
) )
(minimize Z)
(check-sat)